(set-logic QF_UF)
(declare-sort U 0)
(declare-fun x0 () U)
(declare-fun y0 () U)
(declare-fun z0 () U)
(declare-fun x1 () U)
(declare-fun y1 () U)
(declare-fun z1 () U)
(declare-fun x2 () U)
(declare-fun y2 () U)
(declare-fun z2 () U)
(declare-fun x3 () U)
(declare-fun y3 () U)
(declare-fun z3 () U)
(assert (not (= x1 x0)))
(assert (= x0 x1))
(check-sat)
(exit)
